c CNF
c from Selman's wff generator
p cnf 200  1400
1.0 161 -152 0
1.0 -193 64 0
1.0 -121 -196 0
1.0 -82 89 0
1.0 -89 16 0
1.0 83 -11 0
1.0 -28 -164 0
1.0 78 126 0
1.0 -77 87 0
1.0 -151 126 0
1.0 122 52 0
1.0 141 165 0
1.0 181 166 0
1.0 177 68 0
1.0 -32 -185 0
1.0 -110 -181 0
1.0 68 94 0
1.0 20 -191 0
1.0 -43 -113 0
1.0 78 5 0
1.0 -171 -41 0
1.0 -109 -128 0
1.0 113 121 0
1.0 102 -198 0
1.0 -92 -65 0
1.0 56 76 0
1.0 189 194 0
1.0 -198 -92 0
1.0 -133 44 0
1.0 -172 67 0
1.0 -187 32 0
1.0 29 -116 0
1.0 180 43 0
1.0 -118 -82 0
1.0 -75 14 0
1.0 106 95 0
1.0 139 -155 0
1.0 -21 62 0
1.0 93 -101 0
1.0 16 -151 0
1.0 193 -72 0
1.0 153 164 0
1.0 178 188 0
1.0 -82 139 0
1.0 -94 -1 0
1.0 -62 -124 0
1.0 24 15 0
1.0 165 -116 0
1.0 187 -65 0
1.0 -29 85 0
1.0 72 -67 0
1.0 -6 11 0
1.0 11 104 0
1.0 27 133 0
1.0 147 -102 0
1.0 17 124 0
1.0 -188 137 0
1.0 22 111 0
1.0 177 -113 0
1.0 123 -21 0
1.0 124 -92 0
1.0 -24 -33 0
1.0 134 -88 0
1.0 -11 -151 0
1.0 88 -98 0
1.0 8 -39 0
1.0 -151 48 0
1.0 68 -46 0
1.0 -137 -13 0
1.0 -45 -140 0
1.0 -28 12 0
1.0 163 83 0
1.0 -181 -54 0
1.0 -92 160 0
1.0 -7 137 0
1.0 182 -122 0
1.0 135 -6 0
1.0 -146 -9 0
1.0 21 -86 0
1.0 169 -49 0
1.0 -102 -190 0
1.0 149 -109 0
1.0 46 152 0
1.0 -74 96 0
1.0 -102 25 0
1.0 33 143 0
1.0 29 -30 0
1.0 -79 -68 0
1.0 -58 83 0
1.0 -191 9 0
1.0 160 193 0
1.0 89 -9 0
1.0 33 27 0
1.0 -170 -55 0
1.0 -85 -155 0
1.0 -22 141 0
1.0 23 115 0
1.0 124 47 0
1.0 -40 -112 0
1.0 -120 -158 0
1.0 184 -153 0
1.0 -8 138 0
1.0 92 -145 0
1.0 -86 -197 0
1.0 -112 78 0
1.0 -125 -169 0
1.0 80 -35 0
1.0 -192 -8 0
1.0 -161 -171 0
1.0 109 -79 0
1.0 -24 -113 0
1.0 110 107 0
1.0 184 -136 0
1.0 104 -174 0
1.0 -9 -164 0
1.0 -172 -135 0
1.0 105 104 0
1.0 182 158 0
1.0 -71 -127 0
1.0 -33 129 0
1.0 -64 -56 0
1.0 -29 198 0
1.0 161 -133 0
1.0 67 -12 0
1.0 -115 162 0
1.0 -119 -197 0
1.0 -124 -14 0
1.0 -142 168 0
1.0 -23 98 0
1.0 95 123 0
1.0 -55 -125 0
1.0 137 50 0
1.0 -11 -77 0
1.0 -74 -48 0
1.0 -62 87 0
1.0 55 126 0
1.0 -23 -181 0
1.0 -104 -17 0
1.0 142 159 0
1.0 -8 172 0
1.0 -49 -77 0
1.0 -124 -67 0
1.0 -153 72 0
1.0 197 -84 0
1.0 13 136 0
1.0 -108 39 0
1.0 118 48 0
1.0 -177 93 0
1.0 -41 -60 0
1.0 178 162 0
1.0 150 -67 0
1.0 -151 -65 0
1.0 -1 -4 0
1.0 -42 -163 0
1.0 10 -48 0
1.0 140 -185 0
1.0 44 17 0
1.0 179 -148 0
1.0 14 -117 0
1.0 -182 -198 0
1.0 1 120 0
1.0 -82 64 0
1.0 112 47 0
1.0 32 118 0
1.0 134 -118 0
1.0 65 167 0
1.0 84 114 0
1.0 111 -171 0
1.0 -90 -139 0
1.0 3 -152 0
1.0 -199 141 0
1.0 -58 -195 0
1.0 -112 -1 0
1.0 168 143 0
1.0 -57 -97 0
1.0 68 -166 0
1.0 -104 -31 0
1.0 183 -190 0
1.0 130 -184 0
1.0 -179 116 0
1.0 116 82 0
1.0 -24 120 0
1.0 17 53 0
1.0 18 -126 0
1.0 156 -168 0
1.0 -158 48 0
1.0 32 130 0
1.0 45 -53 0
1.0 135 -166 0
1.0 85 -179 0
1.0 -31 86 0
1.0 -11 -26 0
1.0 -194 -198 0
1.0 46 23 0
1.0 152 -113 0
1.0 -166 -186 0
1.0 151 200 0
1.0 -179 96 0
1.0 182 -123 0
1.0 -148 -28 0
1.0 25 61 0
1.0 -83 131 0
1.0 44 33 0
1.0 -19 -185 0
1.0 185 -168 0
1.0 -64 142 0
1.0 64 30 0
1.0 -57 193 0
1.0 -53 -45 0
1.0 -175 99 0
1.0 132 -198 0
1.0 -183 -136 0
1.0 -103 -124 0
1.0 65 -102 0
1.0 -131 -46 0
1.0 38 91 0
1.0 136 -21 0
1.0 -119 194 0
1.0 191 -154 0
1.0 -90 -119 0
1.0 -42 -70 0
1.0 171 -169 0
1.0 14 173 0
1.0 -64 -157 0
1.0 -178 166 0
1.0 -160 -36 0
1.0 -190 147 0
1.0 66 -64 0
1.0 134 -29 0
1.0 197 48 0
1.0 21 94 0
1.0 51 2 0
1.0 -168 -191 0
1.0 27 71 0
1.0 18 1 0
1.0 -65 -165 0
1.0 -193 -3 0
1.0 -51 108 0
1.0 -2 61 0
1.0 63 37 0
1.0 -28 4 0
1.0 74 35 0
1.0 -36 -162 0
1.0 127 -163 0
1.0 -166 1 0
1.0 109 -108 0
1.0 -168 41 0
1.0 77 -41 0
1.0 -44 -18 0
1.0 53 26 0
1.0 -188 -182 0
1.0 144 -87 0
1.0 -88 -141 0
1.0 -49 12 0
1.0 52 -66 0
1.0 106 -107 0
1.0 125 -189 0
1.0 14 75 0
1.0 -56 -52 0
1.0 -139 147 0
1.0 87 -35 0
1.0 -46 125 0
1.0 191 197 0
1.0 104 58 0
1.0 47 111 0
1.0 185 68 0
1.0 119 175 0
1.0 121 149 0
1.0 -183 103 0
1.0 -28 93 0
1.0 -90 -152 0
1.0 10 158 0
1.0 -69 23 0
1.0 91 177 0
1.0 151 134 0
1.0 82 148 0
1.0 50 21 0
1.0 114 19 0
1.0 -171 -8 0
1.0 166 14 0
1.0 37 -152 0
1.0 -128 182 0
1.0 -116 -2 0
1.0 150 -29 0
1.0 50 -154 0
1.0 -173 -171 0
1.0 -179 -160 0
1.0 -174 159 0
1.0 -110 68 0
1.0 -49 -73 0
1.0 -74 65 0
1.0 94 -22 0
1.0 -176 -99 0
1.0 70 72 0
1.0 -31 15 0
1.0 173 172 0
1.0 -40 151 0
1.0 23 34 0
1.0 -99 -13 0
1.0 -35 142 0
1.0 -40 -42 0
1.0 -113 -50 0
1.0 -64 151 0
1.0 -123 -161 0
1.0 111 -37 0
1.0 71 -102 0
1.0 -115 -149 0
1.0 -90 -97 0
1.0 139 118 0
1.0 -167 196 0
1.0 147 142 0
1.0 102 184 0
1.0 -20 80 0
1.0 181 174 0
1.0 123 22 0
1.0 -118 5 0
1.0 -122 180 0
1.0 -176 -102 0
1.0 -44 -184 0
1.0 -167 -20 0
1.0 99 102 0
1.0 -76 -137 0
1.0 158 20 0
1.0 -24 -151 0
1.0 130 -40 0
1.0 142 -152 0
1.0 -135 -17 0
1.0 36 -86 0
1.0 187 164 0
1.0 101 188 0
1.0 -7 68 0
1.0 -18 -66 0
1.0 106 8 0
1.0 159 80 0
1.0 -97 -160 0
1.0 46 81 0
1.0 45 -79 0
1.0 67 152 0
1.0 -20 137 0
1.0 -2 -78 0
1.0 -86 39 0
1.0 -118 185 0
1.0 -145 -132 0
1.0 12 22 0
1.0 -115 1 0
1.0 4 -30 0
1.0 -133 123 0
1.0 108 -49 0
1.0 3 -140 0
1.0 78 132 0
1.0 122 -21 0
1.0 78 125 0
1.0 81 -123 0
1.0 8 -20 0
1.0 162 53 0
1.0 148 185 0
1.0 -49 -199 0
1.0 -131 175 0
1.0 -195 184 0
1.0 -108 -51 0
1.0 173 -31 0
1.0 -51 142 0
1.0 194 -148 0
1.0 132 -33 0
1.0 -32 -194 0
1.0 169 -56 0
1.0 39 -8 0
1.0 -58 185 0
1.0 16 35 0
1.0 177 -119 0
1.0 -67 -98 0
1.0 -131 -141 0
1.0 -135 -85 0
1.0 140 -138 0
1.0 -145 101 0
1.0 86 -61 0
1.0 -96 41 0
1.0 160 43 0
1.0 141 153 0
1.0 94 4 0
1.0 -89 158 0
1.0 95 197 0
1.0 97 -132 0
1.0 193 74 0
1.0 -115 49 0
1.0 -91 200 0
1.0 -153 126 0
1.0 129 136 0
1.0 93 -6 0
1.0 2 53 0
1.0 184 -68 0
1.0 141 164 0
1.0 -12 -22 0
1.0 -22 -30 0
1.0 155 37 0
1.0 -172 95 0
1.0 101 -146 0
1.0 -198 -77 0
1.0 -144 81 0
1.0 -45 21 0
1.0 -42 69 0
1.0 98 93 0
1.0 -129 58 0
1.0 -153 36 0
1.0 -182 -14 0
1.0 -90 154 0
1.0 -35 118 0
1.0 -138 -59 0
1.0 127 94 0
1.0 187 -79 0
1.0 137 12 0
1.0 -48 179 0
1.0 192 95 0
1.0 -49 169 0
1.0 -87 33 0
1.0 91 96 0
1.0 189 -45 0
1.0 124 119 0
1.0 -131 -106 0
1.0 84 90 0
1.0 -185 15 0
1.0 -183 71 0
1.0 104 -77 0
1.0 173 -96 0
1.0 -141 54 0
1.0 -172 -27 0
1.0 132 73 0
1.0 162 -87 0
1.0 -101 47 0
1.0 -117 94 0
1.0 171 -45 0
1.0 -140 25 0
1.0 -78 42 0
1.0 -69 -70 0
1.0 142 -32 0
1.0 118 106 0
1.0 -152 27 0
1.0 121 54 0
1.0 98 101 0
1.0 -125 141 0
1.0 182 63 0
1.0 132 4 0
1.0 -35 -65 0
1.0 -171 -26 0
1.0 -53 -72 0
1.0 126 77 0
1.0 177 -101 0
1.0 -41 179 0
1.0 42 -156 0
1.0 159 -122 0
1.0 -187 -24 0
1.0 49 -117 0
1.0 189 -68 0
1.0 -144 -139 0
1.0 39 197 0
1.0 -175 126 0
1.0 -81 173 0
1.0 95 36 0
1.0 60 -180 0
1.0 97 117 0
1.0 -185 -82 0
1.0 21 136 0
1.0 -132 -71 0
1.0 -197 38 0
1.0 -11 -113 0
1.0 -149 151 0
1.0 -131 25 0
1.0 -141 -123 0
1.0 5 112 0
1.0 47 -102 0
1.0 173 -21 0
1.0 59 8 0
1.0 -120 163 0
1.0 113 161 0
1.0 185 -190 0
1.0 113 -183 0
1.0 -94 -104 0
1.0 -6 -25 0
1.0 -45 -4 0
1.0 -11 -192 0
1.0 -155 146 0
1.0 -106 74 0
1.0 64 -181 0
1.0 163 66 0
1.0 -169 -36 0
1.0 -60 -115 0
1.0 118 -98 0
1.0 90 180 0
1.0 -125 58 0
1.0 -131 -22 0
1.0 -2 -135 0
1.0 200 -64 0
1.0 -99 -18 0
1.0 132 94 0
1.0 -191 71 0
1.0 -50 -37 0
1.0 94 35 0
1.0 56 123 0
1.0 58 190 0
1.0 53 -44 0
1.0 -61 -167 0
1.0 60 173 0
1.0 -43 20 0
1.0 56 -54 0
1.0 -89 -70 0
1.0 193 194 0
1.0 -183 25 0
1.0 -68 -131 0
1.0 -98 -97 0
1.0 70 -163 0
1.0 182 136 0
1.0 -190 71 0
1.0 141 -162 0
1.0 -155 -24 0
1.0 -48 -90 0
1.0 21 -161 0
1.0 58 -166 0
1.0 128 -81 0
1.0 -17 43 0
1.0 114 134 0
1.0 -95 106 0
1.0 -129 -171 0
1.0 61 161 0
1.0 -122 -137 0
1.0 -102 74 0
1.0 -155 -143 0
1.0 -186 85 0
1.0 -19 -60 0
1.0 -165 140 0
1.0 111 -150 0
1.0 111 162 0
1.0 99 -53 0
1.0 127 115 0
1.0 58 168 0
1.0 -53 27 0
1.0 -86 93 0
1.0 -33 -146 0
1.0 -95 14 0
1.0 176 167 0
1.0 20 -46 0
1.0 161 103 0
1.0 70 -78 0
1.0 -105 -200 0
1.0 93 -175 0
1.0 121 184 0
1.0 197 -182 0
1.0 149 -56 0
1.0 -102 119 0
1.0 21 141 0
1.0 19 -139 0
1.0 -138 3 0
1.0 -178 153 0
1.0 -136 -23 0
1.0 -4 -133 0
1.0 -188 149 0
1.0 -67 35 0
1.0 -175 -30 0
1.0 -168 -187 0
1.0 -190 -29 0
1.0 181 -91 0
1.0 114 -178 0
1.0 110 151 0
1.0 -100 -190 0
1.0 24 -137 0
1.0 -166 -28 0
1.0 15 108 0
1.0 -136 -174 0
1.0 65 -36 0
1.0 14 -79 0
1.0 30 -164 0
1.0 153 -7 0
1.0 -143 -146 0
1.0 174 -165 0
1.0 -73 80 0
1.0 -53 -163 0
1.0 198 154 0
1.0 -33 189 0
1.0 -152 -154 0
1.0 160 -86 0
1.0 32 53 0
1.0 -18 53 0
1.0 132 -185 0
1.0 -147 -20 0
1.0 -174 195 0
1.0 183 -90 0
1.0 44 61 0
1.0 -147 -117 0
1.0 -169 -117 0
1.0 169 176 0
1.0 160 -174 0
1.0 194 -184 0
1.0 -178 -7 0
1.0 96 -44 0
1.0 -104 131 0
1.0 48 47 0
1.0 164 -11 0
1.0 186 -79 0
1.0 53 115 0
1.0 99 103 0
1.0 109 187 0
1.0 -30 -131 0
1.0 -62 -85 0
1.0 -132 11 0
1.0 22 127 0
1.0 -6 58 0
1.0 -173 4 0
1.0 -107 116 0
1.0 103 -185 0
1.0 116 -162 0
1.0 46 -50 0
1.0 61 10 0
1.0 137 -98 0
1.0 -156 -41 0
1.0 45 -102 0
1.0 -18 -149 0
1.0 133 185 0
1.0 147 -119 0
1.0 -168 111 0
1.0 -121 42 0
1.0 -140 199 0
1.0 39 197 0
1.0 99 -24 0
1.0 172 -200 0
1.0 -184 -88 0
1.0 -7 -178 0
1.0 89 94 0
1.0 135 113 0
1.0 -112 -63 0
1.0 60 -193 0
1.0 16 -67 0
1.0 66 111 0
1.0 -199 45 0
1.0 -23 -104 0
1.0 -198 -182 0
1.0 95 185 0
1.0 -47 -174 0
1.0 166 -190 0
1.0 -57 -140 0
1.0 -50 60 0
1.0 105 -153 0
1.0 57 31 0
1.0 -13 -157 0
1.0 -141 -190 0
1.0 164 -69 0
1.0 -59 -159 0
1.0 99 -78 0
1.0 -138 10 0
1.0 -162 49 0
1.0 80 6 0
1.0 -162 -58 0
1.0 47 111 0
1.0 -180 183 0
1.0 -142 49 0
1.0 -127 190 0
1.0 -199 -185 0
1.0 -33 -74 0
1.0 79 52 0
1.0 -109 -3 0
1.0 -114 31 0
1.0 -13 -105 0
1.0 -153 84 0
1.0 -73 183 0
1.0 167 -49 0
1.0 -123 11 0
1.0 62 -117 0
1.0 -120 184 0
1.0 -15 91 0
1.0 -195 -58 0
1.0 141 176 0
1.0 158 -170 0
1.0 -19 -117 0
1.0 -127 -36 0
1.0 -153 184 0
1.0 -168 -83 0
1.0 174 -31 0
1.0 -88 191 0
1.0 166 -142 0
1.0 111 -127 0
1.0 43 -173 0
1.0 -9 -12 0
1.0 196 -115 0
1.0 -198 -137 0
1.0 -167 153 0
1.0 144 -54 0
1.0 196 -125 0
1.0 51 81 0
1.0 54 104 0
1.0 116 -18 0
1.0 133 -54 0
1.0 -190 -18 0
1.0 171 -41 0
1.0 95 94 0
1.0 -18 55 0
1.0 -136 -31 0
1.0 135 22 0
1.0 -40 -72 0
1.0 -126 -34 0
1.0 51 5 0
1.0 -45 -83 0
1.0 177 -157 0
1.0 11 -26 0
1.0 -56 -23 0
1.0 44 185 0
1.0 57 -200 0
1.0 34 158 0
1.0 -163 170 0
1.0 -53 39 0
1.0 195 176 0
1.0 -1 86 0
1.0 109 -86 0
1.0 70 -86 0
1.0 -86 -91 0
1.0 48 6 0
1.0 176 107 0
1.0 146 -164 0
1.0 -140 -81 0
1.0 -166 97 0
1.0 183 44 0
1.0 -129 61 0
1.0 -151 -87 0
1.0 92 135 0
1.0 42 -27 0
1.0 -190 -153 0
1.0 33 -73 0
1.0 169 -68 0
1.0 111 99 0
1.0 159 -182 0
1.0 -68 -187 0
1.0 122 -118 0
1.0 -144 -122 0
1.0 75 -77 0
1.0 -149 -134 0
1.0 1 -178 0
1.0 -76 72 0
1.0 -53 -5 0
1.0 191 -53 0
1.0 171 -108 0
1.0 30 -25 0
1.0 101 112 0
1.0 -46 116 0
1.0 -93 -34 0
1.0 105 -109 0
1.0 114 -147 0
1.0 200 -160 0
1.0 67 92 0
1.0 -116 134 0
1.0 45 10 0
1.0 -126 31 0
1.0 -65 -95 0
1.0 -3 -189 0
1.0 136 -6 0
1.0 -165 37 0
1.0 -128 191 0
1.0 124 -128 0
1.0 138 125 0
1.0 156 196 0
1.0 -90 68 0
1.0 56 -118 0
1.0 -123 29 0
1.0 -65 -32 0
1.0 23 -48 0
1.0 -175 -95 0
1.0 -19 -174 0
1.0 -170 56 0
1.0 -123 -185 0
1.0 -102 160 0
1.0 -188 96 0
1.0 128 -33 0
1.0 80 79 0
1.0 -173 -11 0
1.0 -185 -141 0
1.0 197 -162 0
1.0 147 165 0
1.0 124 -67 0
1.0 -163 186 0
1.0 18 8 0
1.0 -87 137 0
1.0 148 -117 0
1.0 58 18 0
1.0 -179 -99 0
1.0 -63 -69 0
1.0 136 46 0
1.0 -32 63 0
1.0 -71 -27 0
1.0 164 -98 0
1.0 15 67 0
1.0 -84 128 0
1.0 -26 98 0
1.0 167 -160 0
1.0 -6 174 0
1.0 36 -186 0
1.0 13 -33 0
1.0 130 -78 0
1.0 145 128 0
1.0 55 141 0
1.0 -38 77 0
1.0 -36 44 0
1.0 18 105 0
1.0 -91 -163 0
1.0 195 -22 0
1.0 100 166 0
1.0 93 -83 0
1.0 24 161 0
1.0 37 198 0
1.0 -42 172 0
1.0 -76 -190 0
1.0 153 -71 0
1.0 92 -149 0
1.0 114 140 0
1.0 -22 105 0
1.0 -65 -183 0
1.0 -181 173 0
1.0 144 86 0
1.0 -75 192 0
1.0 -62 -56 0
1.0 -4 -46 0
1.0 -185 177 0
1.0 81 -79 0
1.0 62 159 0
1.0 132 20 0
1.0 106 -144 0
1.0 135 -80 0
1.0 -135 -183 0
1.0 28 91 0
1.0 68 -182 0
1.0 61 -72 0
1.0 -31 -141 0
1.0 161 28 0
1.0 172 -131 0
1.0 -11 -54 0
1.0 36 50 0
1.0 141 -77 0
1.0 -96 -156 0
1.0 -49 -105 0
1.0 -69 160 0
1.0 197 -16 0
1.0 -62 -174 0
1.0 -76 -83 0
1.0 167 -15 0
1.0 91 -73 0
1.0 -28 13 0
1.0 117 -152 0
1.0 111 -15 0
1.0 30 150 0
1.0 124 -171 0
1.0 -53 158 0
1.0 -172 189 0
1.0 61 156 0
1.0 -168 2 0
1.0 154 30 0
1.0 -44 153 0
1.0 -103 5 0
1.0 176 172 0
1.0 129 149 0
1.0 -137 -174 0
1.0 130 11 0
1.0 -13 -50 0
1.0 79 -53 0
1.0 -5 -1 0
1.0 -6 -162 0
1.0 133 157 0
1.0 -106 58 0
1.0 31 -124 0
1.0 134 -126 0
1.0 -176 41 0
1.0 -93 141 0
1.0 142 -174 0
1.0 136 129 0
1.0 -139 -130 0
1.0 91 40 0
1.0 -80 188 0
1.0 -46 94 0
1.0 -5 -36 0
1.0 13 -75 0
1.0 -78 35 0
1.0 -164 -189 0
1.0 119 104 0
1.0 144 125 0
1.0 112 -171 0
1.0 64 11 0
1.0 46 22 0
1.0 96 -100 0
1.0 -134 166 0
1.0 -155 93 0
1.0 197 -97 0
1.0 -21 -105 0
1.0 75 -193 0
1.0 3 134 0
1.0 -155 19 0
1.0 119 151 0
1.0 -116 12 0
1.0 -105 -148 0
1.0 45 25 0
1.0 -129 5 0
1.0 -198 89 0
1.0 22 -147 0
1.0 166 156 0
1.0 -106 51 0
1.0 63 -86 0
1.0 34 35 0
1.0 -59 -109 0
1.0 -113 -142 0
1.0 -30 132 0
1.0 79 160 0
1.0 -115 54 0
1.0 105 -65 0
1.0 -150 -135 0
1.0 169 200 0
1.0 109 5 0
1.0 -146 -6 0
1.0 137 43 0
1.0 2 -54 0
1.0 -107 187 0
1.0 -51 179 0
1.0 -113 111 0
1.0 -111 46 0
1.0 50 -125 0
1.0 -130 172 0
1.0 14 196 0
1.0 -49 -141 0
1.0 -128 -68 0
1.0 -46 -145 0
1.0 56 -164 0
1.0 -9 148 0
1.0 72 25 0
1.0 196 24 0
1.0 20 151 0
1.0 91 156 0
1.0 -23 191 0
1.0 136 -176 0
1.0 -140 -64 0
1.0 12 141 0
1.0 165 -59 0
1.0 -83 -153 0
1.0 -103 -194 0
1.0 150 -194 0
1.0 185 -9 0
1.0 -185 -65 0
1.0 128 -67 0
1.0 7 -78 0
1.0 -137 106 0
1.0 -59 -101 0
1.0 -95 90 0
1.0 83 167 0
1.0 -176 -55 0
1.0 119 97 0
1.0 -163 -156 0
1.0 -33 -8 0
1.0 -113 -72 0
1.0 -173 106 0
1.0 -196 87 0
1.0 -54 125 0
1.0 -179 130 0
1.0 -27 -72 0
1.0 -27 129 0
1.0 136 99 0
1.0 170 -14 0
1.0 120 -152 0
1.0 -39 118 0
1.0 -42 136 0
1.0 -66 109 0
1.0 180 60 0
1.0 189 -38 0
1.0 -136 -93 0
1.0 106 192 0
1.0 -144 -56 0
1.0 173 132 0
1.0 67 -195 0
1.0 103 152 0
1.0 12 -104 0
1.0 -142 154 0
1.0 -46 -95 0
1.0 -86 31 0
1.0 86 116 0
1.0 48 -85 0
1.0 80 -107 0
1.0 59 70 0
1.0 174 -152 0
1.0 -106 -192 0
1.0 -87 -176 0
1.0 6 80 0
1.0 -195 12 0
1.0 -97 -21 0
1.0 -128 -2 0
1.0 72 21 0
1.0 -173 125 0
1.0 116 154 0
1.0 -129 -132 0
1.0 11 175 0
1.0 186 174 0
1.0 195 -4 0
1.0 -6 15 0
1.0 -35 163 0
1.0 87 83 0
1.0 36 -115 0
1.0 47 179 0
1.0 154 -124 0
1.0 98 111 0
1.0 114 -80 0
1.0 -94 -122 0
1.0 -85 -119 0
1.0 -1 21 0
1.0 135 -179 0
1.0 158 -100 0
1.0 24 -101 0
1.0 11 -72 0
1.0 151 28 0
1.0 -149 40 0
1.0 158 -108 0
1.0 -129 178 0
1.0 156 -197 0
1.0 97 -81 0
1.0 181 -74 0
1.0 -145 56 0
1.0 -83 160 0
1.0 200 -112 0
1.0 -20 -69 0
1.0 47 111 0
1.0 -107 54 0
1.0 -134 -139 0
1.0 -12 -165 0
1.0 21 -23 0
1.0 -183 -191 0
1.0 -102 -200 0
1.0 69 -55 0
1.0 -166 79 0
1.0 132 33 0
1.0 -172 -198 0
1.0 -163 -86 0
1.0 108 191 0
1.0 182 21 0
1.0 21 10 0
1.0 65 73 0
1.0 -152 122 0
1.0 -155 -176 0
1.0 -174 -128 0
1.0 -14 -48 0
1.0 39 5 0
1.0 -26 82 0
1.0 -92 -107 0
1.0 -179 -140 0
1.0 62 87 0
1.0 -63 161 0
1.0 -89 -50 0
1.0 98 -92 0
1.0 -96 -33 0
1.0 -115 57 0
1.0 -164 -102 0
1.0 42 -148 0
1.0 -34 86 0
1.0 -46 -60 0
1.0 110 105 0
1.0 -196 58 0
1.0 90 97 0
1.0 154 -180 0
1.0 82 -173 0
1.0 120 -132 0
1.0 17 145 0
1.0 -5 -182 0
1.0 -86 32 0
1.0 -89 -64 0
1.0 -161 -186 0
1.0 166 194 0
1.0 -166 91 0
1.0 22 197 0
1.0 142 -89 0
1.0 70 -96 0
1.0 128 181 0
1.0 -44 10 0
1.0 -196 -177 0
1.0 170 -150 0
1.0 40 179 0
1.0 176 -60 0
1.0 148 199 0
1.0 -95 123 0
1.0 103 -10 0
1.0 -20 32 0
1.0 -8 -70 0
1.0 -19 185 0
1.0 -164 -133 0
1.0 192 -19 0
1.0 -18 -118 0
1.0 -40 -129 0
1.0 139 -172 0
1.0 -3 40 0
1.0 -109 -149 0
1.0 -133 100 0
1.0 32 105 0
1.0 -123 -90 0
1.0 8 118 0
1.0 -47 -187 0
1.0 -158 -78 0
1.0 -117 115 0
1.0 -64 -159 0
1.0 59 139 0
1.0 -44 -128 0
1.0 -18 76 0
1.0 194 159 0
1.0 145 -60 0
1.0 137 168 0
1.0 82 -35 0
1.0 -193 33 0
1.0 -171 34 0
1.0 -161 -56 0
1.0 132 -86 0
1.0 -44 -73 0
1.0 132 192 0
1.0 -159 154 0
1.0 -188 -1 0
1.0 33 127 0
1.0 160 -174 0
1.0 30 -197 0
1.0 83 -100 0
1.0 -172 -54 0
1.0 -45 5 0
1.0 159 -92 0
1.0 -93 -30 0
1.0 -157 -158 0
1.0 132 -145 0
1.0 -141 134 0
1.0 -34 10 0
1.0 -63 -64 0
1.0 -69 80 0
1.0 -172 155 0
1.0 -184 -99 0
1.0 57 -116 0
1.0 -60 -92 0
1.0 26 71 0
1.0 80 -173 0
1.0 36 -173 0
1.0 -52 159 0
1.0 113 104 0
1.0 3 74 0
1.0 189 92 0
1.0 183 194 0
1.0 65 -71 0
1.0 43 131 0
1.0 -104 -135 0
1.0 -94 114 0
1.0 -18 63 0
1.0 137 -139 0
1.0 -30 125 0
1.0 119 -21 0
1.0 -91 -87 0
1.0 18 -12 0
1.0 147 195 0
1.0 109 -53 0
1.0 -116 148 0
1.0 -86 -25 0
1.0 -149 150 0
1.0 170 147 0
1.0 -34 176 0
1.0 -188 -6 0
1.0 -200 -48 0
1.0 100 19 0
1.0 166 179 0
1.0 -4 -44 0
1.0 193 -94 0
1.0 41 67 0
1.0 -42 17 0
1.0 -22 99 0
1.0 -147 136 0
1.0 154 -162 0
1.0 -141 -128 0
1.0 172 -138 0
1.0 -32 113 0
1.0 -180 148 0
1.0 164 -72 0
1.0 171 -12 0
1.0 -147 -135 0
1.0 97 25 0
1.0 -153 -191 0
1.0 128 -76 0
1.0 188 -13 0
1.0 -161 -177 0
1.0 -49 38 0
1.0 -50 -117 0
1.0 51 -99 0
1.0 -123 116 0
1.0 -106 165 0
1.0 -41 86 0
1.0 -98 23 0
1.0 -199 184 0
1.0 21 92 0
1.0 8 2 0
1.0 100 163 0
1.0 78 -191 0
1.0 156 -97 0
1.0 183 10 0
1.0 -32 20 0
1.0 3 121 0
1.0 13 144 0
1.0 145 158 0
1.0 120 -86 0
1.0 -76 165 0
1.0 62 199 0
1.0 -8 51 0
1.0 70 63 0
1.0 184 -148 0
1.0 91 188 0
1.0 146 95 0
1.0 180 147 0
1.0 112 -45 0
1.0 43 113 0
1.0 164 142 0
1.0 -4 -160 0
1.0 -107 -2 0
1.0 189 -198 0
1.0 -93 113 0
1.0 -60 -62 0
1.0 -107 -15 0
1.0 -128 161 0
1.0 -102 -88 0
1.0 47 -31 0
1.0 -32 74 0
1.0 -72 -184 0
1.0 97 -153 0
1.0 -15 -165 0
1.0 179 -72 0
1.0 -33 -67 0
1.0 155 121 0
1.0 -151 -132 0
1.0 6 105 0
1.0 89 -155 0
1.0 -107 -77 0
1.0 41 69 0
1.0 -140 -110 0
1.0 -177 -120 0
1.0 -40 -145 0
1.0 -76 86 0
1.0 -191 173 0
1.0 127 199 0
1.0 -75 -5 0
1.0 -73 196 0
1.0 -106 59 0
1.0 179 89 0
1.0 34 -145 0
1.0 -31 180 0
1.0 153 148 0
1.0 -146 163 0
1.0 -168 67 0
1.0 63 -70 0
1.0 129 -36 0
1.0 -125 -63 0
1.0 8 133 0
1.0 113 57 0
1.0 -5 -158 0
1.0 -120 57 0
1.0 -124 -107 0
1.0 -177 -179 0
1.0 15 -3 0
1.0 66 135 0
1.0 -68 -163 0
1.0 20 170 0
1.0 -127 188 0
1.0 -44 -146 0
1.0 -53 60 0
1.0 -39 106 0
1.0 -109 -146 0
1.0 81 -88 0
1.0 -50 159 0
1.0 128 171 0
1.0 -159 68 0
1.0 -14 34 0
1.0 94 -122 0
1.0 -27 -31 0
1.0 177 110 0
1.0 -157 -5 0
1.0 133 -182 0
1.0 75 -97 0
1.0 -197 64 0
1.0 -33 -22 0
1.0 -118 -56 0
1.0 -41 116 0
1.0 25 -182 0
1.0 187 -193 0
1.0 175 137 0
1.0 -34 83 0
1.0 146 -145 0
1.0 -166 185 0
1.0 40 112 0
1.0 27 156 0
1.0 138 -179 0
1.0 172 -126 0
1.0 -63 64 0
1.0 -146 184 0
1.0 129 186 0
1.0 -170 1 0
1.0 112 -9 0
1.0 -165 -188 0
1.0 167 -19 0
1.0 144 68 0
1.0 -131 77 0
1.0 -60 -27 0
1.0 12 -38 0
1.0 -39 -60 0
1.0 68 81 0
1.0 -69 77 0
1.0 -95 159 0
1.0 26 -55 0
1.0 131 -146 0
1.0 -173 -2 0
1.0 -40 62 0
1.0 121 -156 0
1.0 37 -116 0
1.0 -192 154 0
1.0 -113 -112 0
1.0 166 170 0
1.0 116 128 0
1.0 129 -67 0
1.0 128 37 0
1.0 193 73 0
1.0 -189 -57 0
1.0 11 -73 0
1.0 185 -191 0
1.0 160 156 0
1.0 -83 134 0
1.0 -200 -35 0
1.0 -72 24 0
1.0 97 12 0
1.0 68 27 0
1.0 100 130 0
1.0 121 63 0
1.0 -18 -80 0
1.0 -14 119 0
1.0 -154 91 0
1.0 114 116 0
1.0 127 -183 0
1.0 9 -159 0
1.0 -89 75 0
1.0 138 -24 0
1.0 104 -45 0
1.0 -163 -167 0
1.0 -57 -71 0
1.0 -186 -32 0
1.0 -14 76 0
1.0 -34 -180 0
1.0 -55 -121 0
1.0 -145 19 0
1.0 -64 2 0
1.0 -169 95 0
1.0 -165 -85 0
1.0 116 -177 0
1.0 -53 169 0
1.0 148 83 0
1.0 -4 -140 0
1.0 -159 140 0
1.0 142 -160 0
1.0 -55 190 0
1.0 -74 -132 0
1.0 -109 -30 0
1.0 198 -72 0
1.0 -154 -56 0
1.0 -195 -142 0
1.0 -81 100 0
1.0 -60 -21 0
1.0 -10 68 0
1.0 199 -101 0
1.0 131 -193 0
1.0 65 114 0
1.0 -169 -22 0
1.0 -163 80 0
1.0 180 89 0
1.0 -109 -198 0
1.0 66 86 0
1.0 -186 -75 0
1.0 67 -38 0
1.0 -152 -118 0
1.0 140 -125 0
1.0 -4 -200 0
1.0 88 -11 0
1.0 -9 176 0
1.0 -62 117 0
1.0 -191 109 0
1.0 -147 8 0
1.0 126 138 0
1.0 -62 103 0
1.0 103 -112 0
1.0 -123 -71 0
1.0 47 -101 0
1.0 -17 143 0
1.0 52 -119 0
1.0 126 54 0
1.0 -191 116 0
1.0 -19 -82 0
1.0 -193 -166 0
1.0 37 97 0
1.0 -197 51 0
1.0 193 147 0
1.0 65 -86 0
1.0 -139 41 0
1.0 156 182 0
1.0 99 194 0
1.0 -104 -144 0
1.0 -190 185 0
1.0 176 -11 0
1.0 -31 -77 0
1.0 119 177 0
1.0 -17 -183 0
1.0 164 185 0
